\* GAP *\
Minimize
sum_of_the_cost_of_the_selected_arcs: 400 x_(0,_1,_1) + 400 x_(0,_1,_2)
 + 400 x_(0,_1,_3) + 176400 x_(0,_10,_0) + 176400 x_(0,_10,_1)
 + 176400 x_(0,_10,_2) + 176400 x_(0,_10,_3) + 10000 x_(0,_2,_0)
 + 10000 x_(0,_2,_1) + 10000 x_(0,_2,_3) + 11025 x_(0,_3,_0)
 + 11025 x_(0,_3,_1) + 11025 x_(0,_3,_2) + 11025 x_(0,_3,_3)
 + 30625 x_(0,_4,_0) + 30625 x_(0,_4,_1) + 30625 x_(0,_4,_2)
 + 30625 x_(0,_4,_3) + 36100 x_(0,_5,_1) + 36100 x_(0,_5,_2)
 + 36100 x_(0,_5,_3) + 62500 x_(0,_6,_0) + 62500 x_(0,_6,_1)
 + 62500 x_(0,_6,_3) + 87025 x_(0,_7,_0) + 87025 x_(0,_7,_1)
 + 87025 x_(0,_7,_3) + 87025 x_(0,_8,_0) + 87025 x_(0,_8,_1)
 + 87025 x_(0,_8,_3) + 108900 x_(0,_9,_1) + 108900 x_(0,_9,_2)
 + 108900 x_(0,_9,_3) + 65025 x_(1,_10,_1) + 65025 x_(1,_10,_2)
 + 65025 x_(1,_10,_3) + 100 x_(1,_4,_1) + 100 x_(1,_4,_2) + 100 x_(1,_4,_3)
 + 625 x_(1,_5,_1) + 625 x_(1,_5,_2) + 625 x_(1,_5,_3) + 7225 x_(1,_6,_1)
 + 7225 x_(1,_6,_3) + 16900 x_(1,_7,_1) + 16900 x_(1,_7,_3)
 + 16900 x_(1,_8,_1) + 16900 x_(1,_8,_3) + 27225 x_(1,_9,_1)
 + 27225 x_(1,_9,_2) + 27225 x_(1,_9,_3) + 60025 x_(2,_10,_0)
 + 60025 x_(2,_10,_1) + 60025 x_(2,_10,_3) + 225 x_(2,_5,_1) + 225 x_(2,_5,_3)
 + 5625 x_(2,_6,_0) + 5625 x_(2,_6,_1) + 5625 x_(2,_6,_3) + 14400 x_(2,_7,_0)
 + 14400 x_(2,_7,_1) + 14400 x_(2,_7,_3) + 14400 x_(2,_8,_0)
 + 14400 x_(2,_8,_1) + 14400 x_(2,_8,_3) + 24025 x_(2,_9,_1)
 + 24025 x_(2,_9,_3) + 34225 x_(3,_10,_0) + 34225 x_(3,_10,_1)
 + 34225 x_(3,_10,_2) + 34225 x_(3,_10,_3) + 225 x_(3,_6,_0) + 225 x_(3,_6,_1)
 + 225 x_(3,_6,_3) + 3600 x_(3,_7,_0) + 3600 x_(3,_7,_1) + 3600 x_(3,_7,_3)
 + 3600 x_(3,_8,_0) + 3600 x_(3,_8,_1) + 3600 x_(3,_8,_3) + 9025 x_(3,_9,_1)
 + 9025 x_(3,_9,_2) + 9025 x_(3,_9,_3) + 22500 x_(4,_10,_0)
 + 22500 x_(4,_10,_1) + 22500 x_(4,_10,_2) + 22500 x_(4,_10,_3)
 + 625 x_(4,_7,_0) + 625 x_(4,_7,_1) + 625 x_(4,_7,_3) + 625 x_(4,_8,_0)
 + 625 x_(4,_8,_1) + 625 x_(4,_8,_3) + 3600 x_(4,_9,_1) + 3600 x_(4,_9,_2)
 + 3600 x_(4,_9,_3) + 21025 x_(5,_10,_1) + 21025 x_(5,_10,_2)
 + 21025 x_(5,_10,_3) + 400 x_(5,_7,_1) + 400 x_(5,_7,_3) + 400 x_(5,_8,_1)
 + 400 x_(5,_8,_3) + 3025 x_(5,_9,_1) + 3025 x_(5,_9,_2) + 3025 x_(5,_9,_3)
 + 10000 x_(6,_10,_0) + 10000 x_(6,_10,_1) + 10000 x_(6,_10,_3)
 + 100 x_(6,_9,_1) + 100 x_(6,_9,_3) + 625 x_(7,_10,_0) + 625 x_(7,_10,_1)
 + 625 x_(7,_10,_3) + 4225 x_(8,_10,_0) + 4225 x_(8,_10,_1)
 + 4225 x_(8,_10,_3) + 2025 x_(9,_10,_1) + 2025 x_(9,_10,_2)
 + 2025 x_(9,_10,_3)
Subject To
End_at_the_last_edge_of_gate_0: x_(0,_10,_0) + x_(2,_10,_0) + x_(3,_10,_0)
 + x_(4,_10,_0) + x_(6,_10,_0) + x_(7,_10,_0) + x_(8,_10,_0) = 1
End_at_the_last_edge_of_gate_1: x_(0,_10,_1) + x_(1,_10,_1) + x_(2,_10,_1)
 + x_(3,_10,_1) + x_(4,_10,_1) + x_(5,_10,_1) + x_(6,_10,_1) + x_(7,_10,_1)
 + x_(8,_10,_1) + x_(9,_10,_1) = 1
End_at_the_last_edge_of_gate_2: x_(0,_10,_2) + x_(1,_10,_2) + x_(3,_10,_2)
 + x_(4,_10,_2) + x_(5,_10,_2) + x_(9,_10,_2) = 1
End_at_the_last_edge_of_gate_3: x_(0,_10,_3) + x_(1,_10,_3) + x_(2,_10,_3)
 + x_(3,_10,_3) + x_(4,_10,_3) + x_(5,_10,_3) + x_(6,_10,_3) + x_(7,_10,_3)
 + x_(8,_10,_3) + x_(9,_10,_3) = 1
Making_sure_that_the_flight_1_has_exactly_one_gate: x_(0,_1,_1) + x_(0,_1,_2)
 + x_(0,_1,_3) = 1
Making_sure_that_the_flight_2_has_exactly_one_gate: x_(0,_2,_0) + x_(0,_2,_1)
 + x_(0,_2,_3) = 1
Making_sure_that_the_flight_3_has_exactly_one_gate: x_(0,_3,_0) + x_(0,_3,_1)
 + x_(0,_3,_2) + x_(0,_3,_3) = 1
Making_sure_that_the_flight_4_has_exactly_one_gate: x_(0,_4,_0) + x_(0,_4,_1)
 + x_(0,_4,_2) + x_(0,_4,_3) + x_(1,_4,_1) + x_(1,_4,_2) + x_(1,_4,_3)
 + x_(2,_4,_0) + x_(2,_4,_1) + x_(2,_4,_3) = 1
Making_sure_that_the_flight_5_has_exactly_one_gate: x_(0,_5,_1) + x_(0,_5,_2)
 + x_(0,_5,_3) + x_(1,_5,_1) + x_(1,_5,_2) + x_(1,_5,_3) + x_(2,_5,_1)
 + x_(2,_5,_3) = 1
Making_sure_that_the_flight_6_has_exactly_one_gate: x_(0,_6,_0) + x_(0,_6,_1)
 + x_(0,_6,_3) + x_(1,_6,_1) + x_(1,_6,_3) + x_(2,_6,_0) + x_(2,_6,_1)
 + x_(2,_6,_3) + x_(3,_6,_0) + x_(3,_6,_1) + x_(3,_6,_3) = 1
Making_sure_that_the_flight_7_has_exactly_one_gate: x_(0,_7,_0) + x_(0,_7,_1)
 + x_(0,_7,_3) + x_(1,_7,_1) + x_(1,_7,_3) + x_(2,_7,_0) + x_(2,_7,_1)
 + x_(2,_7,_3) + x_(3,_7,_0) + x_(3,_7,_1) + x_(3,_7,_3) + x_(4,_7,_0)
 + x_(4,_7,_1) + x_(4,_7,_3) + x_(5,_7,_1) + x_(5,_7,_3) = 1
Making_sure_that_the_flight_8_has_exactly_one_gate: x_(0,_8,_0) + x_(0,_8,_1)
 + x_(0,_8,_3) + x_(1,_8,_1) + x_(1,_8,_3) + x_(2,_8,_0) + x_(2,_8,_1)
 + x_(2,_8,_3) + x_(3,_8,_0) + x_(3,_8,_1) + x_(3,_8,_3) + x_(4,_8,_0)
 + x_(4,_8,_1) + x_(4,_8,_3) + x_(5,_8,_1) + x_(5,_8,_3) = 1
Making_sure_that_the_flight_9_has_exactly_one_gate: x_(0,_9,_1) + x_(0,_9,_2)
 + x_(0,_9,_3) + x_(1,_9,_1) + x_(1,_9,_2) + x_(1,_9,_3) + x_(2,_9,_1)
 + x_(2,_9,_3) + x_(3,_9,_1) + x_(3,_9,_2) + x_(3,_9,_3) + x_(4,_9,_1)
 + x_(4,_9,_2) + x_(4,_9,_3) + x_(5,_9,_1) + x_(5,_9,_2) + x_(5,_9,_3)
 + x_(6,_9,_1) + x_(6,_9,_3) = 1
Start_from_edge_0_from_gate_0: x_(0,_10,_0) + x_(0,_2,_0) + x_(0,_3,_0)
 + x_(0,_4,_0) + x_(0,_6,_0) + x_(0,_7,_0) + x_(0,_8,_0) = 1
Start_from_edge_0_from_gate_1: x_(0,_1,_1) + x_(0,_10,_1) + x_(0,_2,_1)
 + x_(0,_3,_1) + x_(0,_4,_1) + x_(0,_5,_1) + x_(0,_6,_1) + x_(0,_7,_1)
 + x_(0,_8,_1) + x_(0,_9,_1) = 1
Start_from_edge_0_from_gate_2: x_(0,_1,_2) + x_(0,_10,_2) + x_(0,_3,_2)
 + x_(0,_4,_2) + x_(0,_5,_2) + x_(0,_9,_2) = 1
Start_from_edge_0_from_gate_3: x_(0,_1,_3) + x_(0,_10,_3) + x_(0,_2,_3)
 + x_(0,_3,_3) + x_(0,_4,_3) + x_(0,_5,_3) + x_(0,_6,_3) + x_(0,_7,_3)
 + x_(0,_8,_3) + x_(0,_9,_3) = 1
_dummy: __dummy = 0
flow_1_of_gate_0: __dummy = 0
flow_1_of_gate_1: x_(0,_1,_1) - x_(1,_10,_1) - x_(1,_4,_1) - x_(1,_5,_1)
 - x_(1,_6,_1) - x_(1,_7,_1) - x_(1,_8,_1) - x_(1,_9,_1) = 0
flow_1_of_gate_2: x_(0,_1,_2) - x_(1,_10,_2) - x_(1,_4,_2) - x_(1,_5,_2)
 - x_(1,_9,_2) = 0
flow_1_of_gate_3: x_(0,_1,_3) - x_(1,_10,_3) - x_(1,_4,_3) - x_(1,_5,_3)
 - x_(1,_6,_3) - x_(1,_7,_3) - x_(1,_8,_3) - x_(1,_9,_3) = 0
flow_2_of_gate_0: x_(0,_2,_0) - x_(2,_10,_0) - x_(2,_4,_0) - x_(2,_6,_0)
 - x_(2,_7,_0) - x_(2,_8,_0) = 0
flow_2_of_gate_1: x_(0,_2,_1) - x_(2,_10,_1) - x_(2,_4,_1) - x_(2,_5,_1)
 - x_(2,_6,_1) - x_(2,_7,_1) - x_(2,_8,_1) - x_(2,_9,_1) = 0
flow_2_of_gate_2: __dummy = 0
flow_2_of_gate_3: x_(0,_2,_3) - x_(2,_10,_3) - x_(2,_4,_3) - x_(2,_5,_3)
 - x_(2,_6,_3) - x_(2,_7,_3) - x_(2,_8,_3) - x_(2,_9,_3) = 0
flow_3_of_gate_0: x_(0,_3,_0) - x_(3,_10,_0) - x_(3,_6,_0) - x_(3,_7,_0)
 - x_(3,_8,_0) = 0
flow_3_of_gate_1: x_(0,_3,_1) - x_(3,_10,_1) - x_(3,_6,_1) - x_(3,_7,_1)
 - x_(3,_8,_1) - x_(3,_9,_1) = 0
flow_3_of_gate_2: x_(0,_3,_2) - x_(3,_10,_2) - x_(3,_9,_2) = 0
flow_3_of_gate_3: x_(0,_3,_3) - x_(3,_10,_3) - x_(3,_6,_3) - x_(3,_7,_3)
 - x_(3,_8,_3) - x_(3,_9,_3) = 0
flow_4_of_gate_0: x_(0,_4,_0) + x_(2,_4,_0) - x_(4,_10,_0) - x_(4,_7,_0)
 - x_(4,_8,_0) = 0
flow_4_of_gate_1: x_(0,_4,_1) + x_(1,_4,_1) + x_(2,_4,_1) - x_(4,_10,_1)
 - x_(4,_7,_1) - x_(4,_8,_1) - x_(4,_9,_1) = 0
flow_4_of_gate_2: x_(0,_4,_2) + x_(1,_4,_2) - x_(4,_10,_2) - x_(4,_9,_2) = 0
flow_4_of_gate_3: x_(0,_4,_3) + x_(1,_4,_3) + x_(2,_4,_3) - x_(4,_10,_3)
 - x_(4,_7,_3) - x_(4,_8,_3) - x_(4,_9,_3) = 0
flow_5_of_gate_0: __dummy = 0
flow_5_of_gate_1: x_(0,_5,_1) + x_(1,_5,_1) + x_(2,_5,_1) - x_(5,_10,_1)
 - x_(5,_7,_1) - x_(5,_8,_1) - x_(5,_9,_1) = 0
flow_5_of_gate_2: x_(0,_5,_2) + x_(1,_5,_2) - x_(5,_10,_2) - x_(5,_9,_2) = 0
flow_5_of_gate_3: x_(0,_5,_3) + x_(1,_5,_3) + x_(2,_5,_3) - x_(5,_10,_3)
 - x_(5,_7,_3) - x_(5,_8,_3) - x_(5,_9,_3) = 0
flow_6_of_gate_0: x_(0,_6,_0) + x_(2,_6,_0) + x_(3,_6,_0) - x_(6,_10,_0) = 0
flow_6_of_gate_1: x_(0,_6,_1) + x_(1,_6,_1) + x_(2,_6,_1) + x_(3,_6,_1)
 - x_(6,_10,_1) - x_(6,_9,_1) = 0
flow_6_of_gate_2: __dummy = 0
flow_6_of_gate_3: x_(0,_6,_3) + x_(1,_6,_3) + x_(2,_6,_3) + x_(3,_6,_3)
 - x_(6,_10,_3) - x_(6,_9,_3) = 0
flow_7_of_gate_0: x_(0,_7,_0) + x_(2,_7,_0) + x_(3,_7,_0) + x_(4,_7,_0)
 - x_(7,_10,_0) = 0
flow_7_of_gate_1: x_(0,_7,_1) + x_(1,_7,_1) + x_(2,_7,_1) + x_(3,_7,_1)
 + x_(4,_7,_1) + x_(5,_7,_1) - x_(7,_10,_1) = 0
flow_7_of_gate_2: __dummy = 0
flow_7_of_gate_3: x_(0,_7,_3) + x_(1,_7,_3) + x_(2,_7,_3) + x_(3,_7,_3)
 + x_(4,_7,_3) + x_(5,_7,_3) - x_(7,_10,_3) = 0
flow_8_of_gate_0: x_(0,_8,_0) + x_(2,_8,_0) + x_(3,_8,_0) + x_(4,_8,_0)
 - x_(8,_10,_0) = 0
flow_8_of_gate_1: x_(0,_8,_1) + x_(1,_8,_1) + x_(2,_8,_1) + x_(3,_8,_1)
 + x_(4,_8,_1) + x_(5,_8,_1) - x_(8,_10,_1) = 0
flow_8_of_gate_2: __dummy = 0
flow_8_of_gate_3: x_(0,_8,_3) + x_(1,_8,_3) + x_(2,_8,_3) + x_(3,_8,_3)
 + x_(4,_8,_3) + x_(5,_8,_3) - x_(8,_10,_3) = 0
flow_9_of_gate_0: __dummy = 0
flow_9_of_gate_1: x_(0,_9,_1) + x_(1,_9,_1) + x_(2,_9,_1) + x_(3,_9,_1)
 + x_(4,_9,_1) + x_(5,_9,_1) + x_(6,_9,_1) - x_(9,_10,_1) = 0
flow_9_of_gate_2: x_(0,_9,_2) + x_(1,_9,_2) + x_(3,_9,_2) + x_(4,_9,_2)
 + x_(5,_9,_2) - x_(9,_10,_2) = 0
flow_9_of_gate_3: x_(0,_9,_3) + x_(1,_9,_3) + x_(2,_9,_3) + x_(3,_9,_3)
 + x_(4,_9,_3) + x_(5,_9,_3) + x_(6,_9,_3) - x_(9,_10,_3) = 0
Bounds
 __dummy = 0
Binaries
x_(0,_1,_1)
x_(0,_1,_2)
x_(0,_1,_3)
x_(0,_10,_0)
x_(0,_10,_1)
x_(0,_10,_2)
x_(0,_10,_3)
x_(0,_2,_0)
x_(0,_2,_1)
x_(0,_2,_3)
x_(0,_3,_0)
x_(0,_3,_1)
x_(0,_3,_2)
x_(0,_3,_3)
x_(0,_4,_0)
x_(0,_4,_1)
x_(0,_4,_2)
x_(0,_4,_3)
x_(0,_5,_1)
x_(0,_5,_2)
x_(0,_5,_3)
x_(0,_6,_0)
x_(0,_6,_1)
x_(0,_6,_3)
x_(0,_7,_0)
x_(0,_7,_1)
x_(0,_7,_3)
x_(0,_8,_0)
x_(0,_8,_1)
x_(0,_8,_3)
x_(0,_9,_1)
x_(0,_9,_2)
x_(0,_9,_3)
x_(1,_10,_1)
x_(1,_10,_2)
x_(1,_10,_3)
x_(1,_4,_1)
x_(1,_4,_2)
x_(1,_4,_3)
x_(1,_5,_1)
x_(1,_5,_2)
x_(1,_5,_3)
x_(1,_6,_1)
x_(1,_6,_3)
x_(1,_7,_1)
x_(1,_7,_3)
x_(1,_8,_1)
x_(1,_8,_3)
x_(1,_9,_1)
x_(1,_9,_2)
x_(1,_9,_3)
x_(2,_10,_0)
x_(2,_10,_1)
x_(2,_10,_3)
x_(2,_4,_0)
x_(2,_4,_1)
x_(2,_4,_3)
x_(2,_5,_1)
x_(2,_5,_3)
x_(2,_6,_0)
x_(2,_6,_1)
x_(2,_6,_3)
x_(2,_7,_0)
x_(2,_7,_1)
x_(2,_7,_3)
x_(2,_8,_0)
x_(2,_8,_1)
x_(2,_8,_3)
x_(2,_9,_1)
x_(2,_9,_3)
x_(3,_10,_0)
x_(3,_10,_1)
x_(3,_10,_2)
x_(3,_10,_3)
x_(3,_6,_0)
x_(3,_6,_1)
x_(3,_6,_3)
x_(3,_7,_0)
x_(3,_7,_1)
x_(3,_7,_3)
x_(3,_8,_0)
x_(3,_8,_1)
x_(3,_8,_3)
x_(3,_9,_1)
x_(3,_9,_2)
x_(3,_9,_3)
x_(4,_10,_0)
x_(4,_10,_1)
x_(4,_10,_2)
x_(4,_10,_3)
x_(4,_7,_0)
x_(4,_7,_1)
x_(4,_7,_3)
x_(4,_8,_0)
x_(4,_8,_1)
x_(4,_8,_3)
x_(4,_9,_1)
x_(4,_9,_2)
x_(4,_9,_3)
x_(5,_10,_1)
x_(5,_10,_2)
x_(5,_10,_3)
x_(5,_7,_1)
x_(5,_7,_3)
x_(5,_8,_1)
x_(5,_8,_3)
x_(5,_9,_1)
x_(5,_9,_2)
x_(5,_9,_3)
x_(6,_10,_0)
x_(6,_10,_1)
x_(6,_10,_3)
x_(6,_9,_1)
x_(6,_9,_3)
x_(7,_10,_0)
x_(7,_10,_1)
x_(7,_10,_3)
x_(8,_10,_0)
x_(8,_10,_1)
x_(8,_10,_3)
x_(9,_10,_1)
x_(9,_10,_2)
x_(9,_10,_3)
End
